RST04
Position Depot: Random
Horizon for Depot: Small
Position of customers: Random
Distribution of the demand: Large
Width of time windows: Tight
Distribution of the service: Large

VEHICLE 
NUMBER 	 CAPACITY 
 5 	 	 492 
 
CUSTOMER
CUST NO. 	 XCOORD.  	 YCOORD. 	 DEMAND 	 READY TIME 	 DUE DATE 	 SERVICE TIME 
 0 	 	 863 	 	 783 	 	 0 	 	 0 	 	 1589 	 	 0 
  1 	 	 487 	 	 257 	 	 74 	 	 989 	 	 1116 	 	 102 
  2 	 	 341 	 	 618 	 	 88 	 	 731 	 	 843 	 	 155 
  3 	 	 156 	 	 513 	 	 73 	 	 885 	 	 952 	 	 160 
  4 	 	 905 	 	 262 	 	 53 	 	 1401 	 	 1589 	 	 173 
  5 	 	 569 	 	 69 	 	 91 	 	 701 	 	 849 	 	 115 
  6 	 	 858 	 	 273 	 	 49 	 	 488 	 	 561 	 	 169 
  7 	 	 352 	 	 76 	 	 51 	 	 1297 	 	 1467 	 	 161 
  8 	 	 764 	 	 686 	 	 83 	 	 1268 	 	 1358 	 	 151 
  9 	 	 43 	 	 267 	 	 51 	 	 1308 	 	 1458 	 	 149 
  10 	 	 463 	 	 15 	 	 92 	 	 1329 	 	 1441 	 	 168 
  11 	 	 133 	 	 75 	 	 64 	 	 1015 	 	 1118 	 	 113 
  12 	 	 860 	 	 790 	 	 89 	 	 1384 	 	 1552 	 	 125 
  13 	 	 413 	 	 650 	 	 52 	 	 862 	 	 918 	 	 135 
  14 	 	 22 	 	 794 	 	 6 	 	 917 	 	 1074 	 	 116 
  15 	 	 795 	 	 609 	 	 23 	 	 1474 	 	 1572 	 	 164 
  16 	 	 385 	 	 845 	 	 37 	 	 340 	 	 530 	 	 105 
  17 	 	 423 	 	 727 	 	 19 	 	 911 	 	 1001 	 	 138 
  18 	 	 40 	 	 665 	 	 39 	 	 1136 	 	 1260 	 	 104 
  19 	 	 629 	 	 536 	 	 42 	 	 572 	 	 630 	 	 162 
  20 	 	 88 	 	 959 	 	 21 	 	 1441 	 	 1589 	 	 189 
  21 	 	 645 	 	 504 	 	 34 	 	 891 	 	 946 	 	 153 
  22 	 	 35 	 	 302 	 	 99 	 	 915 	 	 1053 	 	 125 
  23 	 	 350 	 	 185 	 	 32 	 	 793 	 	 866 	 	 105 
  24 	 	 96 	 	 857 	 	 20 	 	 717 	 	 847 	 	 163 
  25 	 	 606 	 	 587 	 	 77 	 	 942 	 	 997 	 	 149 
  26 	 	 591 	 	 557 	 	 49 	 	 388 	 	 572 	 	 118 
  27 	 	 563 	 	 787 	 	 14 	 	 758 	 	 949 	 	 149 
  28 	 	 229 	 	 982 	 	 72 	 	 534 	 	 730 	 	 171 
  29 	 	 985 	 	 323 	 	 53 	 	 699 	 	 891 	 	 180 
  30 	 	 681 	 	 223 	 	 17 	 	 847 	 	 942 	 	 114 
  31 	 	 581 	 	 115 	 	 93 	 	 703 	 	 797 	 	 145 
  32 	 	 483 	 	 509 	 	 99 	 	 1033 	 	 1124 	 	 175 
  33 	 	 881 	 	 273 	 	 82 	 	 1378 	 	 1489 	 	 133 
  34 	 	 72 	 	 733 	 	 66 	 	 759 	 	 871 	 	 183 
  35 	 	 813 	 	 624 	 	 72 	 	 390 	 	 507 	 	 199 
  36 	 	 931 	 	 165 	 	 82 	 	 619 	 	 683 	 	 159 
  37 	 	 365 	 	 132 	 	 80 	 	 774 	 	 901 	 	 194 
  38 	 	 42 	 	 434 	 	 58 	 	 977 	 	 1040 	 	 122 
  39 	 	 976 	 	 573 	 	 49 	 	 1277 	 	 1454 	 	 183 
  40 	 	 740 	 	 320 	 	 40 	 	 524 	 	 614 	 	 145 
  41 	 	 683 	 	 866 	 	 68 	 	 1445 	 	 1589 	 	 111 
  42 	 	 775 	 	 897 	 	 55 	 	 424 	 	 567 	 	 112 
  43 	 	 959 	 	 925 	 	 46 	 	 464 	 	 530 	 	 146 
  44 	 	 972 	 	 692 	 	 69 	 	 1292 	 	 1421 	 	 105 
  45 	 	 921 	 	 583 	 	 46 	 	 1034 	 	 1087 	 	 149 
  46 	 	 675 	 	 98 	 	 1 	 	 585 	 	 781 	 	 122 
  47 	 	 473 	 	 111 	 	 28 	 	 787 	 	 854 	 	 165 
  48 	 	 141 	 	 410 	 	 24 	 	 859 	 	 933 	 	 165 
  49 	 	 937 	 	 278 	 	 91 	 	 933 	 	 1029 	 	 147 
  50 	 	 674 	 	 154 	 	 16 	 	 1285 	 	 1369 	 	 109 
 